p cnf 150 1061
1 2 3 4 5 0
6 7 8 9 10 0
11 12 13 14 15 0
16 17 18 19 20 0
21 22 23 24 25 0
26 27 28 29 30 0
31 32 33 34 35 0
36 37 38 39 40 0
41 42 43 44 45 0
46 47 48 49 50 0
51 52 53 54 55 0
56 57 58 59 60 0
61 62 63 64 65 0
66 67 68 69 70 0
71 72 73 74 75 0
76 77 78 79 80 0
81 82 83 84 85 0
86 87 88 89 90 0
91 92 93 94 95 0
96 97 98 99 100 0
101 102 103 104 105 0
106 107 108 109 110 0
111 112 113 114 115 0
116 117 118 119 120 0
121 122 123 124 125 0
126 127 128 129 130 0
131 132 133 134 135 0
136 137 138 139 140 0
141 142 143 144 145 0
146 147 148 149 150 0
-1 -2 0
-1 -3 0
-1 -4 0
-1 -5 0
-2 -3 0
-2 -4 0
-2 -5 0
-3 -4 0
-3 -5 0
-4 -5 0
-6 -7 0
-6 -8 0
-6 -9 0
-6 -10 0
-7 -8 0
-7 -9 0
-7 -10 0
-8 -9 0
-8 -10 0
-9 -10 0
-11 -12 0
-11 -13 0
-11 -14 0
-11 -15 0
-12 -13 0
-12 -14 0
-12 -15 0
-13 -14 0
-13 -15 0
-14 -15 0
-16 -17 0
-16 -18 0
-16 -19 0
-16 -20 0
-17 -18 0
-17 -19 0
-17 -20 0
-18 -19 0
-18 -20 0
-19 -20 0
-21 -22 0
-21 -23 0
-21 -24 0
-21 -25 0
-22 -23 0
-22 -24 0
-22 -25 0
-23 -24 0
-23 -25 0
-24 -25 0
-26 -27 0
-26 -28 0
-26 -29 0
-26 -30 0
-27 -28 0
-27 -29 0
-27 -30 0
-28 -29 0
-28 -30 0
-29 -30 0
-31 -32 0
-31 -33 0
-31 -34 0
-31 -35 0
-32 -33 0
-32 -34 0
-32 -35 0
-33 -34 0
-33 -35 0
-34 -35 0
-36 -37 0
-36 -38 0
-36 -39 0
-36 -40 0
-37 -38 0
-37 -39 0
-37 -40 0
-38 -39 0
-38 -40 0
-39 -40 0
-41 -42 0
-41 -43 0
-41 -44 0
-41 -45 0
-42 -43 0
-42 -44 0
-42 -45 0
-43 -44 0
-43 -45 0
-44 -45 0
-46 -47 0
-46 -48 0
-46 -49 0
-46 -50 0
-47 -48 0
-47 -49 0
-47 -50 0
-48 -49 0
-48 -50 0
-49 -50 0
-51 -52 0
-51 -53 0
-51 -54 0
-51 -55 0
-52 -53 0
-52 -54 0
-52 -55 0
-53 -54 0
-53 -55 0
-54 -55 0
-56 -57 0
-56 -58 0
-56 -59 0
-56 -60 0
-57 -58 0
-57 -59 0
-57 -60 0
-58 -59 0
-58 -60 0
-59 -60 0
-61 -62 0
-61 -63 0
-61 -64 0
-61 -65 0
-62 -63 0
-62 -64 0
-62 -65 0
-63 -64 0
-63 -65 0
-64 -65 0
-66 -67 0
-66 -68 0
-66 -69 0
-66 -70 0
-67 -68 0
-67 -69 0
-67 -70 0
-68 -69 0
-68 -70 0
-69 -70 0
-71 -72 0
-71 -73 0
-71 -74 0
-71 -75 0
-72 -73 0
-72 -74 0
-72 -75 0
-73 -74 0
-73 -75 0
-74 -75 0
-76 -77 0
-76 -78 0
-76 -79 0
-76 -80 0
-77 -78 0
-77 -79 0
-77 -80 0
-78 -79 0
-78 -80 0
-79 -80 0
-81 -82 0
-81 -83 0
-81 -84 0
-81 -85 0
-82 -83 0
-82 -84 0
-82 -85 0
-83 -84 0
-83 -85 0
-84 -85 0
-86 -87 0
-86 -88 0
-86 -89 0
-86 -90 0
-87 -88 0
-87 -89 0
-87 -90 0
-88 -89 0
-88 -90 0
-89 -90 0
-91 -92 0
-91 -93 0
-91 -94 0
-91 -95 0
-92 -93 0
-92 -94 0
-92 -95 0
-93 -94 0
-93 -95 0
-94 -95 0
-96 -97 0
-96 -98 0
-96 -99 0
-96 -100 0
-97 -98 0
-97 -99 0
-97 -100 0
-98 -99 0
-98 -100 0
-99 -100 0
-101 -102 0
-101 -103 0
-101 -104 0
-101 -105 0
-102 -103 0
-102 -104 0
-102 -105 0
-103 -104 0
-103 -105 0
-104 -105 0
-106 -107 0
-106 -108 0
-106 -109 0
-106 -110 0
-107 -108 0
-107 -109 0
-107 -110 0
-108 -109 0
-108 -110 0
-109 -110 0
-111 -112 0
-111 -113 0
-111 -114 0
-111 -115 0
-112 -113 0
-112 -114 0
-112 -115 0
-113 -114 0
-113 -115 0
-114 -115 0
-116 -117 0
-116 -118 0
-116 -119 0
-116 -120 0
-117 -118 0
-117 -119 0
-117 -120 0
-118 -119 0
-118 -120 0
-119 -120 0
-121 -122 0
-121 -123 0
-121 -124 0
-121 -125 0
-122 -123 0
-122 -124 0
-122 -125 0
-123 -124 0
-123 -125 0
-124 -125 0
-126 -127 0
-126 -128 0
-126 -129 0
-126 -130 0
-127 -128 0
-127 -129 0
-127 -130 0
-128 -129 0
-128 -130 0
-129 -130 0
-131 -132 0
-131 -133 0
-131 -134 0
-131 -135 0
-132 -133 0
-132 -134 0
-132 -135 0
-133 -134 0
-133 -135 0
-134 -135 0
-136 -137 0
-136 -138 0
-136 -139 0
-136 -140 0
-137 -138 0
-137 -139 0
-137 -140 0
-138 -139 0
-138 -140 0
-139 -140 0
-141 -142 0
-141 -143 0
-141 -144 0
-141 -145 0
-142 -143 0
-142 -144 0
-142 -145 0
-143 -144 0
-143 -145 0
-144 -145 0
-146 -147 0
-146 -148 0
-146 -149 0
-146 -150 0
-147 -148 0
-147 -149 0
-147 -150 0
-148 -149 0
-148 -150 0
-149 -150 0
-2 -45 0
-3 -45 0
-5 -44 0
-1 -42 0
-3 -42 0
-5 -42 0
-4 -42 0
-5 -43 0
-2 -41 0
-4 -43 0
-1 -43 0
-2 -44 0
-2 -42 0
-1 -44 0
-4 -45 0
-2 -43 0
-1 -45 0
-5 -122 0
-5 -125 0
-2 -125 0
-3 -123 0
-1 -124 0
-4 -125 0
-3 -124 0
-2 -122 0
-2 -124 0
-5 -121 0
-4 -124 0
-4 -123 0
-1 -125 0
-1 -123 0
-1 -122 0
-5 -123 0
-3 -121 0
-2 -148 0
-5 -150 0
-4 -150 0
-1 -150 0
-1 -146 0
-3 -149 0
-2 -146 0
-4 -146 0
-3 -146 0
-2 -150 0
-3 -148 0
-4 -148 0
-2 -149 0
-3 -147 0
-4 -149 0
-5 -149 0
-5 -146 0
-10 -35 0
-7 -32 0
-6 -31 0
-9 -35 0
-8 -32 0
-7 -31 0
-8 -33 0
-9 -34 0
-9 -31 0
-10 -31 0
-10 -32 0
-6 -34 0
-10 -33 0
-6 -32 0
-6 -35 0
-7 -33 0
-8 -31 0
-9 -52 0
-10 -53 0
-9 -51 0
-6 -55 0
-8 -51 0
-10 -55 0
-6 -53 0
-10 -52 0
-10 -54 0
-6 -51 0
-7 -53 0
-9 -55 0
-7 -54 0
-10 -51 0
-7 -52 0
-8 -54 0
-8 -52 0
-6 -85 0
-8 -81 0
-7 -82 0
-6 -84 0
-9 -82 0
-10 -84 0
-10 -83 0
-10 -85 0
-6 -82 0
-7 -81 0
-8 -83 0
-10 -82 0
-9 -85 0
-9 -84 0
-6 -81 0
-7 -84 0
-7 -83 0
-10 -126 0
-7 -128 0
-8 -130 0
-7 -129 0
-8 -129 0
-10 -127 0
-10 -128 0
-9 -127 0
-7 -130 0
-9 -130 0
-6 -130 0
-6 -128 0
-9 -126 0
-10 -130 0
-7 -127 0
-9 -129 0
-7 -126 0
-8 -137 0
-10 -137 0
-10 -136 0
-9 -137 0
-8 -139 0
-8 -136 0
-7 -140 0
-9 -139 0
-6 -136 0
-6 -138 0
-6 -139 0
-9 -138 0
-8 -138 0
-7 -138 0
-10 -140 0
-10 -138 0
-9 -136 0
-11 -36 0
-11 -40 0
-14 -37 0
-14 -40 0
-12 -36 0
-15 -39 0
-14 -38 0
-12 -40 0
-15 -38 0
-12 -39 0
-12 -37 0
-12 -38 0
-11 -38 0
-11 -39 0
-13 -40 0
-15 -40 0
-14 -39 0
-15 -88 0
-15 -87 0
-12 -88 0
-14 -88 0
-11 -88 0
-13 -89 0
-14 -90 0
-11 -87 0
-13 -86 0
-15 -86 0
-12 -89 0
-14 -89 0
-13 -87 0
-11 -90 0
-14 -87 0
-15 -90 0
-11 -89 0
-16 -121 0
-20 -124 0
-18 -121 0
-19 -125 0
-18 -123 0
-16 -124 0
-18 -125 0
-18 -124 0
-17 -123 0
-20 -121 0
-20 -122 0
-16 -122 0
-18 -122 0
-19 -124 0
-19 -122 0
-17 -125 0
-20 -123 0
-22 -128 0
-22 -130 0
-24 -127 0
-24 -130 0
-22 -126 0
-21 -127 0
-24 -129 0
-22 -127 0
-25 -127 0
-21 -129 0
-25 -126 0
-23 -127 0
-24 -128 0
-23 -126 0
-22 -129 0
-25 -128 0
-23 -130 0
-27 -97 0
-26 -99 0
-30 -97 0
-29 -96 0
-28 -99 0
-29 -100 0
-30 -99 0
-26 -98 0
-26 -96 0
-29 -97 0
-30 -96 0
-28 -98 0
-30 -98 0
-28 -100 0
-30 -100 0
-28 -96 0
-28 -97 0
-26 -103 0
-26 -104 0
-29 -103 0
-26 -102 0
-28 -103 0
-29 -101 0
-29 -102 0
-28 -105 0
-27 -105 0
-28 -104 0
-29 -104 0
-26 -101 0
-30 -104 0
-27 -104 0
-27 -102 0
-29 -105 0
-30 -102 0
-31 -44 0
-34 -44 0
-31 -41 0
-31 -43 0
-33 -42 0
-35 -41 0
-35 -42 0
-34 -45 0
-32 -42 0
-31 -45 0
-33 -44 0
-32 -43 0
-34 -43 0
-32 -44 0
-35 -44 0
-34 -41 0
-31 -42 0
-34 -50 0
-31 -46 0
-33 -48 0
-31 -50 0
-31 -47 0
-33 -50 0
-33 -47 0
-34 -49 0
-31 -49 0
-32 -47 0
-34 -46 0
-32 -49 0
-32 -48 0
-34 -47 0
-32 -50 0
-31 -48 0
-34 -48 0
-40 -54 0
-38 -52 0
-39 -55 0
-37 -51 0
-38 -51 0
-37 -53 0
-37 -54 0
-40 -51 0
-39 -52 0
-38 -53 0
-39 -51 0
-40 -52 0
-39 -53 0
-40 -55 0
-37 -52 0
-36 -53 0
-36 -51 0
-42 -60 0
-44 -58 0
-41 -57 0
-41 -56 0
-44 -60 0
-42 -58 0
-42 -56 0
-44 -59 0
-44 -57 0
-45 -60 0
-42 -59 0
-45 -58 0
-41 -60 0
-42 -57 0
-45 -56 0
-41 -58 0
-41 -59 0
-45 -128 0
-44 -129 0
-41 -127 0
-45 -129 0
-44 -127 0
-42 -127 0
-44 -128 0
-41 -130 0
-42 -129 0
-42 -126 0
-45 -130 0
-44 -130 0
-45 -126 0
-45 -127 0
-43 -129 0
-43 -128 0
-41 -129 0
-41 -134 0
-44 -134 0
-41 -135 0
-43 -134 0
-45 -135 0
-44 -132 0
-42 -133 0
-43 -132 0
-42 -132 0
-45 -132 0
-43 -135 0
-41 -133 0
-45 -133 0
-42 -131 0
-41 -131 0
-44 -135 0
-45 -131 0
-46 -93 0
-47 -91 0
-47 -93 0
-47 -94 0
-50 -93 0
-50 -91 0
-48 -92 0
-49 -92 0
-47 -92 0
-49 -93 0
-48 -94 0
-46 -91 0
-50 -92 0
-48 -91 0
-46 -94 0
-48 -95 0
-46 -92 0
-48 -130 0
-50 -127 0
-46 -126 0
-47 -129 0
-49 -129 0
-46 -130 0
-48 -126 0
-49 -130 0
-46 -127 0
-48 -127 0
-48 -129 0
-50 -130 0
-50 -129 0
-49 -126 0
-46 -129 0
-50 -126 0
-47 -130 0
-59 -100 0
-59 -98 0
-58 -97 0
-60 -98 0
-56 -100 0
-57 -96 0
-57 -97 0
-57 -98 0
-59 -96 0
-59 -99 0
-56 -96 0
-58 -100 0
-58 -96 0
-60 -100 0
-60 -96 0
-56 -99 0
-57 -100 0
-58 -104 0
-57 -102 0
-56 -103 0
-57 -104 0
-56 -102 0
-60 -104 0
-57 -101 0
-57 -105 0
-59 -102 0
-56 -104 0
-56 -101 0
-58 -102 0
-58 -105 0
-57 -103 0
-60 -101 0
-59 -104 0
-59 -105 0
-57 -111 0
-56 -114 0
-57 -114 0
-58 -111 0
-59 -113 0
-59 -112 0
-58 -112 0
-56 -113 0
-60 -113 0
-56 -111 0
-57 -115 0
-60 -112 0
-57 -113 0
-60 -111 0
-56 -115 0
-60 -114 0
-57 -112 0
-59 -139 0
-59 -137 0
-57 -139 0
-58 -138 0
-57 -138 0
-60 -138 0
-57 -136 0
-58 -136 0
-59 -136 0
-56 -138 0
-56 -136 0
-59 -138 0
-60 -137 0
-60 -136 0
-59 -140 0
-60 -139 0
-57 -137 0
-63 -70 0
-64 -68 0
-65 -69 0
-64 -66 0
-65 -70 0
-65 -68 0
-61 -69 0
-61 -68 0
-62 -68 0
-61 -66 0
-62 -67 0
-63 -69 0
-62 -69 0
-64 -70 0
-62 -66 0
-64 -67 0
-61 -67 0
-61 -73 0
-65 -74 0
-61 -75 0
-63 -75 0
-65 -75 0
-61 -72 0
-65 -71 0
-62 -73 0
-63 -72 0
-62 -71 0
-65 -73 0
-63 -71 0
-61 -74 0
-64 -75 0
-64 -74 0
-63 -73 0
-62 -74 0
-64 -123 0
-62 -121 0
-63 -122 0
-65 -124 0
-63 -121 0
-62 -125 0
-63 -123 0
-62 -123 0
-63 -124 0
-61 -122 0
-65 -122 0
-65 -121 0
-64 -121 0
-63 -125 0
-62 -122 0
-65 -123 0
-62 -124 0
-66 -122 0
-70 -125 0
-68 -123 0
-66 -124 0
-67 -121 0
-68 -125 0
-69 -123 0
-69 -122 0
-69 -121 0
-70 -122 0
-70 -123 0
-70 -124 0
-68 -124 0
-66 -125 0
-66 -121 0
-67 -125 0
-67 -122 0
-69 -149 0
-70 -148 0
-68 -148 0
-68 -150 0
-68 -146 0
-67 -149 0
-66 -147 0
-67 -148 0
-70 -150 0
-67 -147 0
-67 -146 0
-67 -150 0
-66 -146 0
-70 -147 0
-69 -150 0
-68 -147 0
-70 -146 0
-72 -84 0
-73 -85 0
-75 -84 0
-73 -81 0
-74 -81 0
-74 -85 0
-74 -82 0
-75 -81 0
-71 -81 0
-71 -82 0
-71 -85 0
-73 -83 0
-71 -84 0
-74 -83 0
-72 -82 0
-71 -83 0
-74 -84 0
-73 -110 0
-71 -108 0
-71 -107 0
-74 -110 0
-72 -107 0
-71 -106 0
-74 -108 0
-75 -108 0
-75 -110 0
-72 -106 0
-74 -109 0
-73 -107 0
-72 -109 0
-73 -106 0
-73 -109 0
-75 -109 0
-71 -109 0
-73 -114 0
-74 -115 0
-72 -115 0
-72 -111 0
-75 -113 0
-71 -115 0
-75 -114 0
-73 -113 0
-75 -111 0
-74 -113 0
-74 -111 0
-74 -114 0
-75 -115 0
-72 -114 0
-73 -115 0
-74 -112 0
-71 -113 0
-80 -115 0
-76 -114 0
-77 -114 0
-76 -115 0
-77 -111 0
-80 -111 0
-79 -112 0
-78 -112 0
-78 -115 0
-80 -114 0
-76 -111 0
-78 -114 0
-80 -112 0
-79 -114 0
-78 -111 0
-79 -115 0
-77 -115 0
-86 -99 0
-86 -100 0
-89 -100 0
-89 -99 0
-90 -98 0
-87 -99 0
-90 -96 0
-86 -96 0
-87 -100 0
-86 -98 0
-90 -99 0
-88 -97 0
-90 -97 0
-89 -98 0
-90 -100 0
-87 -97 0
-88 -98 0
-90 -102 0
-87 -104 0
-89 -103 0
-88 -101 0
-86 -102 0
-88 -102 0
-90 -105 0
-88 -103 0
-87 -103 0
-89 -101 0
-86 -103 0
-87 -105 0
-87 -101 0
-90 -103 0
-89 -104 0
-87 -102 0
-90 -101 0
-86 -134 0
-89 -132 0
-88 -132 0
-88 -134 0
-88 -133 0
-88 -135 0
-86 -131 0
-90 -133 0
-87 -134 0
-87 -135 0
-86 -133 0
-90 -134 0
-89 -134 0
-90 -132 0
-87 -132 0
-87 -131 0
-89 -133 0
-88 -137 0
-89 -138 0
-90 -140 0
-89 -139 0
-89 -136 0
-86 -136 0
-90 -139 0
-89 -140 0
-86 -140 0
-88 -138 0
-86 -139 0
-87 -137 0
-90 -136 0
-87 -139 0
-87 -140 0
-86 -137 0
-88 -136 0
-99 -127 0
-96 -126 0
-100 -126 0
-97 -127 0
-100 -129 0
-98 -127 0
-99 -129 0
-99 -130 0
-100 -127 0
-100 -130 0
-96 -129 0
-96 -128 0
-98 -129 0
-96 -127 0
-97 -130 0
-97 -128 0
-99 -126 0
-113 -123 0
-112 -124 0
-113 -121 0
-115 -121 0
-113 -124 0
-115 -124 0
-114 -122 0
-111 -121 0
-112 -122 0
-112 -123 0
-111 -125 0
-111 -123 0
-114 -121 0
-111 -124 0
-115 -123 0
-115 -125 0
-112 -121 0
-125 -135 0
-123 -135 0
-125 -134 0
-121 -131 0
-124 -131 0
-121 -132 0
-121 -134 0
-124 -135 0
-122 -132 0
-125 -131 0
-125 -132 0
-122 -131 0
-122 -134 0
-121 -135 0
-123 -134 0
-124 -134 0
-124 -133 0
-122 -140 0
-121 -140 0
-123 -136 0
-123 -140 0
-123 -138 0
-123 -137 0
-122 -136 0
-123 -139 0
-124 -137 0
-122 -138 0
-122 -139 0
-121 -138 0
-121 -136 0
-122 -137 0
-121 -137 0
-124 -140 0
-125 -137 0
